proyfinal/src/viki/013/experimentInOfficeAgust.take6.output/45e336e4-fec4-4abc-8d5a-37c2ba6ceb5e.als.dat
{'cnf.clauses': '118081',
 'cnf.totvars': '69608',
 'conflict literals': '64',
 'conflicts': '32',
 'decisions': '32467',
 'memused.mb': '16.90',
 'outcome': 'UNSAT',
 'propagations': '76466',
 'restarts': '1',
 'solver.msecs': 38,
 'task.msecs': 99}
