proyfinal/src/viki/013/experimentInOfficeAgust.take6.output/45e336e4-fec4-4abc-8d5a-37c2ba6ceb5e.als.out
Reading from standard input... Use '--help' for help.
============================[ Problem Statistics ]=============================
|                                                                             |
|  Number of variables:         69608                                         |
|  Number of clauses:          118081                                         |
|  Parse time:                   0.03 s                                       |
|                                                                             |
============================[ Search Statistics ]==============================
| Conflicts |          ORIGINAL         |          LEARNT          | Progress |
|           |    Vars  Clauses Literals |    Limit  Clauses Lit/Cl |          |
===============================================================================
===============================================================================
restarts              : 1
conflicts             : 32             (835 /sec)
decisions             : 32467          (0.00 % random) (846752 /sec)
propagations          : 76466          (1994262 /sec)
conflict literals     : 64             (0.00 % deleted)
Memory used           : 16.90 MB
CPU time              : 0.038343 s

UNSATISFIABLE
